66
40
0
0
48
21
86
98
0
46
0
112
49
78
0
53
0
49
30
15
50
28
20
37
10
31
141
72
12
81
18
114
42
0
48
49
54
0
90
0
35
15
46
39
114
78
122
39
35
124
15
14
35
65
134
34
50
49
18
14
119
102
37
27
84
45
22
0
21
56
49
44
36
13
31
20
40
13
26
21
129
0
44
96
123
43
40
63
23
36
30
67
0
40
32
14
9
30
98
89
